%chk=D:\shujufenxi\Y6\y6\Y6wenxian.chk
# hf/3-21g geom=connectivity

Title Card Required

0 1
 C                 -1.39000000    1.68600000   -0.12400000
 C                 -0.69400000    0.46900000   -0.00400000
 C                  0.74300000    0.46500000    0.00600000
 C                  1.44600000    1.67800000    0.12900000
 C                  0.74500000    2.92700000    0.09900000
 C                 -0.68300000    2.93200000   -0.09100000
 N                 -1.20700000    4.14300000   -0.15900000
 S                  0.03800000    5.20000000    0.00600000
 N                  1.27700000    4.13500000    0.16900000
 C                 -2.76300000    1.36200000   -0.13800000
 C                 -2.86200000   -0.01400000    0.00800000
 N                 -1.60300000   -0.56900000    0.10000000
 C                  2.81700000    1.34500000    0.14200000
 C                  2.90800000   -0.03100000   -0.00800000
 N                  1.64600000   -0.57800000   -0.10100000
 C                 -4.20100000   -0.46900000    0.06800000
 C                 -5.09300000    0.59700000   -0.05200000
 S                 -4.30400000    2.16000000   -0.22900000
 C                  4.24400000   -0.49300000   -0.06800000
 C                  5.14300000    0.56800000    0.05400000
 S                  4.36200000    2.13400000    0.23500000
 C                 -6.44200000    0.21300000   -0.02100000
 C                 -6.57100000   -1.17700000    0.13600000
 S                 -4.99900000   -1.98200000    0.23100000
 C                  6.48900000    0.17600000    0.02200000
 C                  6.61000000   -1.21500000   -0.13800000
 S                  5.03400000   -2.01000000   -0.23500000
 C                 -7.85700000   -1.77400000    0.18900000
 C                 -8.32100000   -3.05500000    0.33700000
 C                  7.89300000   -1.81900000   -0.19300000
 C                  8.35000000   -3.10100000   -0.34300000
 C                 -1.38300000   -1.88700000    0.67700000
 C                  1.41800000   -1.89300000   -0.68000000
 C                  7.63800000    1.13500000    0.14300000
 C                 -7.58600000    1.17900000   -0.14000000
 C                 -9.73100000   -3.46700000    0.35600000
 C                 -9.75200000   -4.93900000    0.57000000
 C                 -8.43700000   -5.40000000    0.66700000
 C                 -7.49700000   -4.26700000    0.52300000
 C                  9.75700000   -3.52100000   -0.36400000
 C                  9.77000000   -4.99300000   -0.58100000
 C                  8.45200000   -5.44700000   -0.67900000
 C                  7.51800000   -4.30800000   -0.53200000
 C                 -8.11600000   -6.73200000    0.86800000
 C                 -9.16500000   -7.62600000    0.97300000
 C                -10.48900000   -7.18200000    0.87800000
 C                -10.80600000   -5.84900000    0.67700000
 C                  8.12300000   -6.77700000   -0.88300000
 C                  9.16700000   -7.67600000   -0.99100000
 C                 10.49300000   -7.24000000   -0.89500000
 C                 10.81800000   -5.90900000   -0.69000000
 O                 -6.28200000   -4.35000000    0.55700000
 O                  6.30300000   -4.38400000   -0.56700000
 F                -11.46100000   -8.08300000    0.98500000
 F                 -8.94100000   -8.92200000    1.16700000
 F                  8.93600000   -8.97000000   -1.18800000
 F                 11.46100000   -8.14600000   -1.00500000
 C                -10.85000000   -2.68900000    0.20300000
 C                -12.18000000   -3.21600000    0.23900000
 N                -13.27000000   -3.61300000    0.26300000
 C                -10.81900000   -1.27500000   -0.01100000
 N                -10.82300000   -0.12700000   -0.18400000
 C                 10.88100000   -2.75100000   -0.20900000
 C                 10.85800000   -1.33700000    0.00800000
 N                 10.86800000   -0.19000000    0.18500000
 C                 12.20700000   -3.28500000   -0.24600000
 N                 13.29500000   -3.68900000   -0.27100000
 H                 -8.62600000   -1.01800000    0.08700000
 H                  8.66600000   -1.06700000   -0.08900000
 H                 -0.33200000   -2.15800000    0.57800000
 H                 -2.00700000   -2.65000000    0.20400000
 H                  0.39500000   -2.21000000   -0.47800000
 H                  2.11800000   -2.63800000   -0.29300000
 H                  8.27400000    1.11900000   -0.74700000
 H                  8.27700000    0.89400000    0.99800000
 H                 -8.22100000    1.16400000    0.75000000
 H                 -8.22500000    0.94400000   -0.99500000
 H                 -7.08600000   -7.06200000    0.94000000
 H                -11.85000000   -5.57800000    0.61100000
 H                  7.09100000   -7.10000000   -0.95600000
 H                 11.86400000   -5.64400000   -0.62400000
 C                 -1.71600000   -1.83600000    2.17900000
 H                 -1.77100000   -0.81700000    2.49800000
 C                 -0.61500000   -2.56400000    2.97400000
 H                 -0.50500000   -3.56000000    2.60000000
 H                  0.31000000   -2.03800000    2.86500000
 C                 -1.00400000   -2.61400000    4.46300000
 H                 -1.22600000   -1.62600000    4.80700000
 H                 -1.86700000   -3.23600000    4.58500000
 C                  0.16600000   -3.19300000    5.28000000
 H                  0.40000000   -4.17300000    4.92200000
 H                  1.02200000   -2.56000000    5.17400000
 C                 -0.23500000   -3.27000000    6.76500000
 H                 -1.04000000   -3.96400000    6.88200000
 H                  0.60400000   -3.59700000    7.34400000
 H                 -0.54600000   -2.30300000    7.10200000
 C                  1.58800000   -1.80200000   -2.20800000
 H                  1.56900000   -0.77500000   -2.50800000
 C                  0.43900000   -2.56000000   -2.89900000
 H                  0.43200000   -3.57700000   -2.56600000
 H                 -0.49300000   -2.09700000   -2.65100000
 C                  0.64300000   -2.52100000   -4.42500000
 H                  0.77500000   -1.50700000   -4.74100000
 H                  1.51000000   -3.09100000   -4.68400000
 C                 -0.59200000   -3.12000000   -5.12300000
 H                 -0.73800000   -4.12600000   -4.78900000
 H                 -1.45600000   -2.53600000   -4.88200000
 C                 -0.37500000   -3.11100000   -6.64700000
 H                  0.43800000   -3.76000000   -6.89600000
 H                 -1.26400000   -3.45100000   -7.13600000
 H                 -0.14900000   -2.11600000   -6.96900000
 C                 -3.07000000   -2.52600000    2.42900000
 H                 -3.50100000   -2.14900000    3.33300000
 H                 -3.72800000   -2.32700000    1.60900000
 C                 -2.85600000   -4.04600000    2.55700000
 H                 -2.92100000   -4.33000000    3.58700000
 H                 -3.60800000   -4.56100000    1.99700000
 H                 -1.88900000   -4.30300000    2.17800000
 C                  2.93400000   -2.43000000   -2.61400000
 H                  3.25300000   -2.01800000   -3.54800000
 H                  3.66700000   -2.21900000   -1.86300000
 C                  2.76800000   -3.95400000   -2.75500000
 H                  2.73600000   -4.21500000   -3.79200000
 H                  3.59500000   -4.44800000   -2.28900000
 H                  1.85800000   -4.25900000   -2.28200000
 C                  7.12600000    2.57500000    0.33000000
 H                  6.54400000    2.86000000   -0.52100000
 H                  6.52000000    2.62700000    1.21100000
 C                  8.32500000    3.53200000    0.47500000
 H                  8.89800000    3.25800000    1.33600000
 H                  8.94000000    3.46700000   -0.39800000
 C                  7.81300000    4.97500000    0.63700000
 H                  7.24300000    5.25000000   -0.22600000
 H                  7.19500000    5.03900000    1.50800000
 C                  9.01200000    5.93100000    0.78600000
 H                  9.58200000    5.65500000    1.64800000
 H                  9.62900000    5.86700000   -0.08600000
 C                  8.50000000    7.37400000    0.94800000
 H                  7.88100000    7.43700000    1.81900000
 H                  7.93100000    7.65000000    0.08500000
 C                  9.69800000    8.32900000    1.10100000
 H                 10.26700000    8.05300000    1.96400000
 H                 10.31700000    8.26600000    0.23000000
 C                  9.18700000    9.77300000    1.26300000
 H                  8.56700000    9.83600000    2.13400000
 H                  8.61800000   10.04900000    0.40000000
 C                 10.38500000   10.72800000    1.41500000
 H                 10.95400000   10.45200000    2.27800000
 H                 11.00400000   10.66500000    0.54500000
 C                  9.87300000   12.17100000    1.57800000
 H                  9.25500000   12.23400000    2.44900000
 H                  9.30400000   12.44800000    0.71600000
 C                 11.07200000   13.12700000    1.73000000
 H                 10.71600000   14.13000000    1.84300000
 H                 11.64100000   12.85100000    2.59300000
 H                 11.69000000   13.06400000    0.85900000
 C                 -7.06500000    2.61700000   -0.32300000
 H                 -6.48100000    2.89600000    0.52800000
 H                 -6.45900000    2.66700000   -1.20400000
 C                 -8.25800000    3.58000000   -0.46600000
 H                 -8.83300000    3.31100000   -1.32700000
 H                 -8.87300000    3.51700000    0.40800000
 C                 -7.73800000    5.02100000   -0.62500000
 H                 -7.16600000    5.29100000    0.23700000
 H                 -7.12100000    5.08300000   -1.49700000
 C                 -8.93100000    5.98400000   -0.77200000
 H                 -9.54900000    5.92100000    0.09900000
 H                 -9.50300000    5.71400000   -1.63600000
 C                 -8.41100000    7.42400000   -0.93100000
 H                 -7.84200000    7.69600000   -0.06700000
 H                 -7.79100000    7.48600000   -1.80100000
 C                 -9.60400000    8.38700000   -1.08300000
 H                -10.17400000    8.11500000   -1.94800000
 H                -10.22500000    8.32600000   -0.21400000
 C                 -9.08400000    9.82700000   -1.24300000
 H                 -8.51600000   10.09900000   -0.37900000
 H                 -8.46300000    9.88800000   -2.11200000
 C                -10.27700000   10.78900000   -1.39700000
 H                -10.84600000   10.51700000   -2.26100000
 H                -10.89800000   10.72900000   -0.52800000
 C                 -9.75700000   12.23000000   -1.55700000
 H                 -9.18900000   12.50200000   -0.69200000
 H                 -9.13600000   12.29000000   -2.42600000
 C                -10.95000000   13.19200000   -1.71100000
 H                -10.58900000   14.19300000   -1.82300000
 H                -11.51800000   12.92000000   -2.57600000
 H                -11.57100000   13.13200000   -0.84200000

 1 10 1.5 2 1.0 6 1.5
 2 3 1.0 12 1.0
 3 4 1.0 15 1.0
 4 5 1.5 13 1.5
 5 6 1.0 9 2.0
 6 7 2.0
 7 8 1.0
 8 9 1.0
 9
 10 11 1.5 18 1.0
 11 16 1.5 12 1.0
 12 32 1.0
 13 14 2.0 21 1.0
 14 15 1.5 19 2.0
 15 33 1.0
 16 17 2.0 24 1.0
 17 18 1.0 22 1.5
 18
 19 27 1.0 20 1.5
 20 21 1.0 25 1.5
 21
 22 23 1.5 35 1.0
 23 24 1.0 28 1.5
 24
 25 34 1.0 26 1.0
 26 27 1.0 30 1.0
 27
 28 29 2.0 68 1.0
 29 36 1.0 39 1.0
 30 69 1.0 31 1.5
 31 40 1.0 43 1.5
 32 84 1.0 71 1.0 70 1.0
 33 72 1.0 73 1.0 85 1.0
 34 74 1.0 75 1.0 82 1.0
 35 77 1.0 76 1.0 83 1.0
 36 37 1.0 58 1.5
 37 47 1.5 38 1.5
 38 44 1.5 39 1.0
 39 52 2.0
 40 41 1.0 63 1.5
 41 51 1.5 42 1.5
 42 48 1.5 43 1.0
 43 53 2.0
 44 45 1.5 78 1.0
 45 46 1.5 55 1.0
 46 54 1.0 47 2.0
 47 79 1.0
 48 49 2.0 80 1.0
 49 50 2.0 56 1.0
 50 51 2.0 57 1.0
 51 81 1.0
 52
 53
 54
 55
 56
 57
 58 61 1.0 59 1.5
 59 60 3.0
 60
 61 62 3.0
 62
 63 64 1.5 66 1.5
 64 65 3.0
 65
 66 67 3.0
 67
 68
 69
 70
 71
 72
 73
 74
 75
 76
 77
 78
 79
 80
 81
 82
 83
 84
 85

